benchmarks/bfuzz0/309413559227301751520153303243070910954.smt2
(set-logic QF_FP)
(declare-const x0 (_ FloatingPoint 11 53))
(declare-const x1 (_ FloatingPoint 11 53))
(declare-const x2 (_ FloatingPoint 11 53))
(declare-const x3 (_ FloatingPoint 11 53))
(declare-const x4 (_ FloatingPoint 11 53))
(declare-const x5 (_ FloatingPoint 11 53))
(declare-const x6 (_ FloatingPoint 11 53))
(declare-const x7 (_ FloatingPoint 11 53))
(declare-const x8 (_ FloatingPoint 11 53))
(declare-const x9 (_ FloatingPoint 11 53))
(declare-const x10 (_ FloatingPoint 11 53))
(assert (fp.gt (fp.div RNE (fp.neg (fp.mul RNE (fp.sub RNE x0 x4) (fp.sub RNE x3 x5))) (fp.div RNE (fp.add RNE (fp.mul RNE x5 x8) (fp.sub RNE x10 x2)) (fp.div RNE (fp.add RNE x2 x7) (fp.div RNE x3 x10)))) (fp.div RNE (fp.mul RNE (fp.add RNE (fp.sub RNE x1 x6) (fp.mul RNE x0 x2)) (fp.sub RNE (fp.add RNE x0 x4) (fp.div RNE x0 x7))) (fp.neg (fp.div RNE (fp.sub RNE x4 x10) (fp.neg x9))))))
(assert (fp.geq (fp.div RNE (fp.mul RNE (fp.div RNE (fp.div RNE x8 x4) (fp.add RNE x10 x0)) (fp.mul RNE (fp.div RNE x6 x6) (fp.div RNE x1 x5))) (fp.mul RNE (fp.sub RNE (fp.sub RNE x10 x5) (fp.neg x6)) (fp.add RNE (fp.div RNE x2 x9) (fp.mul RNE x6 x1)))) (fp.neg (fp.sub RNE (fp.mul RNE (fp.mul RNE x6 x8) (fp.neg x6)) (fp.sub RNE (fp.mul RNE x10 x4) (fp.div RNE x7 x5))))))
(assert (fp.gt (fp.sub RNE (fp.add RNE (fp.sub RNE (fp.div RNE x5 x10) (fp.mul RNE x6 x2)) (fp.neg (fp.div RNE x3 x7))) (fp.neg (fp.add RNE (fp.sub RNE x8 x3) (fp.neg x9)))) (fp.sub RNE (fp.sub RNE (fp.sub RNE (fp.sub RNE x0 x4) (fp.neg x5)) (fp.sub RNE (fp.add RNE x6 x4) (fp.sub RNE x6 x5))) (fp.sub RNE (fp.sub RNE (fp.add RNE x5 x5) (fp.neg x3)) (fp.sub RNE (fp.add RNE x4 x10) (fp.neg x0))))))
(assert (fp.lt (fp.mul RNE (fp.div RNE (fp.mul RNE (fp.neg x2) (fp.neg x7)) (fp.mul RNE (fp.div RNE x10 x4) (fp.div RNE x4 x3))) (fp.neg (fp.div RNE (fp.sub RNE x9 x2) (fp.add RNE x8 x2)))) (fp.add RNE (fp.mul RNE (fp.sub RNE (fp.div RNE x9 x3) (fp.neg x3)) (fp.sub RNE (fp.neg x4) (fp.div RNE x2 x1))) (fp.div RNE (fp.div RNE (fp.div RNE x9 x9) (fp.add RNE x6 x0)) (fp.div RNE (fp.add RNE x6 x4) (fp.mul RNE x2 x6))))))
(check-sat)
