db/data/309413559227301751520153303243070910954.z3.out
-------------------
2500.204041598
